300
200
160
159
159
158
158
158
158
157
157
157
155
155
154
151
151
151
150
150
149
149
148
147
147
147
146
146
144
144
144
144
143
143
143
143
143
142
142
141
141
141
139
139
138
138
138
138
138
137
137
137
135
135
134
134
134
132
131
130
130
130
130
129
129
129
129
128
128
127
126
126
126
124
124
123
123
123
123
122
122
122
122
122
120
120
120
119
119
117
117
117
116
115
115
114
114
114
113
112
111
110
109
109
108
108
107
107
107
107
105
105
105
104
104
104
103
103
102
102
102
101
101
101
101
101
100
100
100
99
99
99
97
97
96
96
95
95
94
94
94
94
94
93
93
92
92
91
89
89
89
87
86
86
86
86
85
85
85
84
84
84
83
83
83
82
82
82
81
80
80
80
79
79
79
79
78
78
77
77
76
75
75
74
74
70
70
69
67
67
67
66
66
64
64
63
63
63
62
61
61
60
59
59
59
59
58
58
58
57
56
56
56
56
56
55
55
54
54
53
52
52
52
52
51
51
51
50
50
49
49
48
47
47
47
47
46
46
45
44
44
44
43
43
43
43
43
42
42
40
40
39
39
38
38
38
38
37
37
37
37
37
36
36
36
36
36
36
34
33
33
32
32
31
31
30
30
29
29
28
28
27
27
27
26
25
25
25
25
25
24
24
24
24
23
22
21
21
21
20
20
20
